NAME : a280
COMMENT : Tour length 3309
TYPE : TOUR
DIMENSION : 280
TOUR_SECTION
1
280
2
3
279
278
4
277
276
275
274
273
272
271
16
17
18
19
20
21
128
127
126
125
124
123
122
121
120
119
157
158
159
160
175
161
162
163
164
165
166
167
168
169
170
172
171
173
106
105
104
108
110
111
114
115
117
118
61
60
43
42
41
40
39
38
37
36
35
34
33
32
31
30
29
28
27
26
22
25
23
24
14
13
12
11
10
8
7
9
6
5
260
261
262
263
264
265
266
138
139
148
147
146
145
199
198
197
194
195
196
201
200
144
143
142
141
140
267
268
269
270
134
135
136
137
149
150
178
177
176
181
182
183
184
185
187
186
190
189
188
191
192
193
202
203
204
205
206
208
253
254
257
258
259
256
255
252
209
210
211
214
215
218
219
222
221
220
217
216
213
212
207
229
230
251
250
247
244
245
246
231
232
233
234
235
236
237
238
239
240
241
243
242
248
249
228
227
226
225
224
223
179
180
151
152
156
153
155
154
129
130
131
132
133
15
174
107
103
102
101
100
99
98
97
96
95
94
93
92
91
90
109
89
81
82
83
84
85
65
64
63
62
116
86
87
113
112
88
80
79
76
75
77
78
74
73
72
71
70
67
66
68
69
58
59
44
45
46
47
48
49
50
51
52
53
54
55
56
57
1
-1
EOF